120 150

51
43
43
40
54
57
45
48
45
48
57
40
53
58
47
45
45
45
60
50
47
54
50
46
40
55
56
42
52
49
41
60
57
43
50
40
40
40
51
50
49
40
40
40
54
48
48
40
42
40
49
42
60
60
54
44
52
51
55
44
40
40
40
49
50
51
49
41
60
53
47
50
57
55
41
50
60
48
42
41
52
58
42
50
41
52
58
48
44
51
42
57
41
55
57
43
52
46
52
41
41
41
44
50
56
60
45
45
48
47
55
43
50
57
48
57
44
55
44
50